WARNING: for repeatability, setting FPU to use double precision
============================[ Problem Statistics ]=============================
|                                                                             |
|  Number of variables:          8556                                         |
|  Number of clauses:          200132                                         |
|  Parse time:                   0.06 s                                       |
|  Eliminated clauses:           0.05 Mb                                      |
|  Simplification time:          0.20 s                                       |
|                                                                             |
============================[ Search Statistics ]==============================
| Conflicts |          ORIGINAL         |          LEARNT          | Progress |
|           |    Vars  Clauses Literals |    Limit  Clauses Lit/Cl |          |
===============================================================================
|       100 |    3855    41243    87586 |    15122       99      9 | 37.401 % |
===============================================================================
restarts              : 2
conflicts             : 166            (590 /sec)
decisions             : 352            (0.00 % random) (1252 /sec)
propagations          : 56048          (199282 /sec)
conflict literals     : 1890           (19.68 % deleted)
Memory used           : 27.79 MB
CPU time              : 0.28125 s

SATISFIABLE
